p cnf 21 102
4 7 11 16 22 29 37 0
8 12 17 23 30 38 47 0
13 18 24 31 39 48 58 0
-4 -8 0
-7 -12 0
-11 -17 0
-16 -23 0
-22 -30 0
-29 -38 0
-37 -47 0
-4 -13 0
-7 -18 0
-11 -24 0
-16 -31 0
-22 -39 0
-29 -48 0
-37 -58 0
-8 -13 0
-12 -18 0
-17 -24 0
-23 -31 0
-30 -39 0
-38 -48 0
-47 -58 0
-4 -12 0
-4 -17 0
-4 -30 0
-4 -38 0
-4 -47 0
-7 -17 0
-7 -30 0
-7 -38 0
-7 -47 0
-11 -38 0
-11 -47 0
-16 -30 0
-22 -47 0
-4 -18 0
-4 -24 0
-4 -39 0
-4 -48 0
-4 -58 0
-7 -24 0
-7 -39 0
-7 -48 0
-7 -58 0
-11 -48 0
-11 -58 0
-16 -39 0
-22 -58 0
-8 -7 0
-8 -11 0
-8 -22 0
-8 -29 0
-8 -37 0
-12 -11 0
-12 -22 0
-12 -29 0
-12 -37 0
-17 -29 0
-17 -37 0
-23 -22 0
-30 -37 0
-8 -18 0
-8 -24 0
-8 -39 0
-8 -48 0
-8 -58 0
-12 -24 0
-12 -39 0
-12 -48 0
-12 -58 0
-17 -48 0
-17 -58 0
-23 -39 0
-30 -58 0
-13 -7 0
-13 -11 0
-13 -22 0
-13 -29 0
-13 -37 0
-18 -11 0
-18 -22 0
-18 -29 0
-18 -37 0
-24 -29 0
-24 -37 0
-31 -22 0
-39 -37 0
-13 -12 0
-13 -17 0
-13 -30 0
-13 -38 0
-13 -47 0
-18 -17 0
-18 -30 0
-18 -38 0
-18 -47 0
-24 -38 0
-24 -47 0
-31 -30 0
-39 -47 0
